\ Model VRPSPD_Origin
\ LP format - for model browsing. Use MPS format to capture full model detail.
Minimize
  106.7754653466797 x[0,1,0] + 98.0612053770501 x[0,2,0]
   + 98.67117106835208 x[0,3,0] + 70.71067811865476 x[0,4,0]
   + 58.309518948453 x[0,5,0] + 106.7754653466797 x[1,0,0]
   + 20.22374841615668 x[1,2,0] + 70.178344238091 x[1,3,0]
   + 102.4743870437877 x[1,4,0] + 69.72087205421343 x[1,5,0]
   + 98.0612053770501 x[2,0,0] + 20.22374841615668 x[2,1,0]
   + 50.03998401278722 x[2,3,0] + 83.7615663654877 x[2,4,0]
   + 72.49827584156743 x[2,5,0] + 98.67117106835208 x[3,0,0]
   + 70.178344238091 x[3,1,0] + 50.03998401278722 x[3,2,0]
   + 48.33218389437829 x[3,4,0] + 102.4499877989256 x[3,5,0]
   + 70.71067811865476 x[4,0,0] + 102.4743870437877 x[4,1,0]
   + 83.7615663654877 x[4,2,0] + 48.33218389437829 x[4,3,0]
   + 101.9803902718557 x[4,5,0] + 58.309518948453 x[5,0,0]
   + 69.72087205421343 x[5,1,0] + 72.49827584156743 x[5,2,0]
   + 102.4499877989256 x[5,3,0] + 101.9803902718557 x[5,4,0]
   + 106.7754653466797 x[0,1,1] + 98.0612053770501 x[0,2,1]
   + 98.67117106835208 x[0,3,1] + 70.71067811865476 x[0,4,1]
   + 58.309518948453 x[0,5,1] + 106.7754653466797 x[1,0,1]
   + 20.22374841615668 x[1,2,1] + 70.178344238091 x[1,3,1]
   + 102.4743870437877 x[1,4,1] + 69.72087205421343 x[1,5,1]
   + 98.0612053770501 x[2,0,1] + 20.22374841615668 x[2,1,1]
   + 50.03998401278722 x[2,3,1] + 83.7615663654877 x[2,4,1]
   + 72.49827584156743 x[2,5,1] + 98.67117106835208 x[3,0,1]
   + 70.178344238091 x[3,1,1] + 50.03998401278722 x[3,2,1]
   + 48.33218389437829 x[3,4,1] + 102.4499877989256 x[3,5,1]
   + 70.71067811865476 x[4,0,1] + 102.4743870437877 x[4,1,1]
   + 83.7615663654877 x[4,2,1] + 48.33218389437829 x[4,3,1]
   + 101.9803902718557 x[4,5,1] + 58.309518948453 x[5,0,1]
   + 69.72087205421343 x[5,1,1] + 72.49827584156743 x[5,2,1]
   + 102.4499877989256 x[5,3,1] + 101.9803902718557 x[5,4,1]
   + 106.7754653466797 x[0,1,2] + 98.0612053770501 x[0,2,2]
   + 98.67117106835208 x[0,3,2] + 70.71067811865476 x[0,4,2]
   + 58.309518948453 x[0,5,2] + 106.7754653466797 x[1,0,2]
   + 20.22374841615668 x[1,2,2] + 70.178344238091 x[1,3,2]
   + 102.4743870437877 x[1,4,2] + 69.72087205421343 x[1,5,2]
   + 98.0612053770501 x[2,0,2] + 20.22374841615668 x[2,1,2]
   + 50.03998401278722 x[2,3,2] + 83.7615663654877 x[2,4,2]
   + 72.49827584156743 x[2,5,2] + 98.67117106835208 x[3,0,2]
   + 70.178344238091 x[3,1,2] + 50.03998401278722 x[3,2,2]
   + 48.33218389437829 x[3,4,2] + 102.4499877989256 x[3,5,2]
   + 70.71067811865476 x[4,0,2] + 102.4743870437877 x[4,1,2]
   + 83.7615663654877 x[4,2,2] + 48.33218389437829 x[4,3,2]
   + 101.9803902718557 x[4,5,2] + 58.309518948453 x[5,0,2]
   + 69.72087205421343 x[5,1,2] + 72.49827584156743 x[5,2,2]
   + 102.4499877989256 x[5,3,2] + 101.9803902718557 x[5,4,2]
Subject To
 visit_1: x[1,0,0] + x[1,2,0] + x[1,3,0] + x[1,4,0] + x[1,5,0] + x[1,0,1]
   + x[1,2,1] + x[1,3,1] + x[1,4,1] + x[1,5,1] + x[1,0,2] + x[1,2,2]
   + x[1,3,2] + x[1,4,2] + x[1,5,2] = 1
 visit_2: x[2,0,0] + x[2,1,0] + x[2,3,0] + x[2,4,0] + x[2,5,0] + x[2,0,1]
   + x[2,1,1] + x[2,3,1] + x[2,4,1] + x[2,5,1] + x[2,0,2] + x[2,1,2]
   + x[2,3,2] + x[2,4,2] + x[2,5,2] = 1
 visit_3: x[3,0,0] + x[3,1,0] + x[3,2,0] + x[3,4,0] + x[3,5,0] + x[3,0,1]
   + x[3,1,1] + x[3,2,1] + x[3,4,1] + x[3,5,1] + x[3,0,2] + x[3,1,2]
   + x[3,2,2] + x[3,4,2] + x[3,5,2] = 1
 visit_4: x[4,0,0] + x[4,1,0] + x[4,2,0] + x[4,3,0] + x[4,5,0] + x[4,0,1]
   + x[4,1,1] + x[4,2,1] + x[4,3,1] + x[4,5,1] + x[4,0,2] + x[4,1,2]
   + x[4,2,2] + x[4,3,2] + x[4,5,2] = 1
 visit_5: x[5,0,0] + x[5,1,0] + x[5,2,0] + x[5,3,0] + x[5,4,0] + x[5,0,1]
   + x[5,1,1] + x[5,2,1] + x[5,3,1] + x[5,4,1] + x[5,0,2] + x[5,1,2]
   + x[5,2,2] + x[5,3,2] + x[5,4,2] = 1
 flow_0_0: x[0,1,0] + x[0,2,0] + x[0,3,0] + x[0,4,0] + x[0,5,0] - x[1,0,0]
   - x[2,0,0] - x[3,0,0] - x[4,0,0] - x[5,0,0] = 0
 flow_1_0: - x[0,1,0] + x[1,0,0] + x[1,2,0] + x[1,3,0] + x[1,4,0]
   + x[1,5,0] - x[2,1,0] - x[3,1,0] - x[4,1,0] - x[5,1,0] = 0
 flow_2_0: - x[0,2,0] - x[1,2,0] + x[2,0,0] + x[2,1,0] + x[2,3,0]
   + x[2,4,0] + x[2,5,0] - x[3,2,0] - x[4,2,0] - x[5,2,0] = 0
 flow_3_0: - x[0,3,0] - x[1,3,0] - x[2,3,0] + x[3,0,0] + x[3,1,0]
   + x[3,2,0] + x[3,4,0] + x[3,5,0] - x[4,3,0] - x[5,3,0] = 0
 flow_4_0: - x[0,4,0] - x[1,4,0] - x[2,4,0] - x[3,4,0] + x[4,0,0]
   + x[4,1,0] + x[4,2,0] + x[4,3,0] + x[4,5,0] - x[5,4,0] = 0
 flow_5_0: - x[0,5,0] - x[1,5,0] - x[2,5,0] - x[3,5,0] - x[4,5,0]
   + x[5,0,0] + x[5,1,0] + x[5,2,0] + x[5,3,0] + x[5,4,0] = 0
 flow_0_1: x[0,1,1] + x[0,2,1] + x[0,3,1] + x[0,4,1] + x[0,5,1] - x[1,0,1]
   - x[2,0,1] - x[3,0,1] - x[4,0,1] - x[5,0,1] = 0
 flow_1_1: - x[0,1,1] + x[1,0,1] + x[1,2,1] + x[1,3,1] + x[1,4,1]
   + x[1,5,1] - x[2,1,1] - x[3,1,1] - x[4,1,1] - x[5,1,1] = 0
 flow_2_1: - x[0,2,1] - x[1,2,1] + x[2,0,1] + x[2,1,1] + x[2,3,1]
   + x[2,4,1] + x[2,5,1] - x[3,2,1] - x[4,2,1] - x[5,2,1] = 0
 flow_3_1: - x[0,3,1] - x[1,3,1] - x[2,3,1] + x[3,0,1] + x[3,1,1]
   + x[3,2,1] + x[3,4,1] + x[3,5,1] - x[4,3,1] - x[5,3,1] = 0
 flow_4_1: - x[0,4,1] - x[1,4,1] - x[2,4,1] - x[3,4,1] + x[4,0,1]
   + x[4,1,1] + x[4,2,1] + x[4,3,1] + x[4,5,1] - x[5,4,1] = 0
 flow_5_1: - x[0,5,1] - x[1,5,1] - x[2,5,1] - x[3,5,1] - x[4,5,1]
   + x[5,0,1] + x[5,1,1] + x[5,2,1] + x[5,3,1] + x[5,4,1] = 0
 flow_0_2: x[0,1,2] + x[0,2,2] + x[0,3,2] + x[0,4,2] + x[0,5,2] - x[1,0,2]
   - x[2,0,2] - x[3,0,2] - x[4,0,2] - x[5,0,2] = 0
 flow_1_2: - x[0,1,2] + x[1,0,2] + x[1,2,2] + x[1,3,2] + x[1,4,2]
   + x[1,5,2] - x[2,1,2] - x[3,1,2] - x[4,1,2] - x[5,1,2] = 0
 flow_2_2: - x[0,2,2] - x[1,2,2] + x[2,0,2] + x[2,1,2] + x[2,3,2]
   + x[2,4,2] + x[2,5,2] - x[3,2,2] - x[4,2,2] - x[5,2,2] = 0
 flow_3_2: - x[0,3,2] - x[1,3,2] - x[2,3,2] + x[3,0,2] + x[3,1,2]
   + x[3,2,2] + x[3,4,2] + x[3,5,2] - x[4,3,2] - x[5,3,2] = 0
 flow_4_2: - x[0,4,2] - x[1,4,2] - x[2,4,2] - x[3,4,2] + x[4,0,2]
   + x[4,1,2] + x[4,2,2] + x[4,3,2] + x[4,5,2] - x[5,4,2] = 0
 flow_5_2: - x[0,5,2] - x[1,5,2] - x[2,5,2] - x[3,5,2] - x[4,5,2]
   + x[5,0,2] + x[5,1,2] + x[5,2,2] + x[5,3,2] + x[5,4,2] = 0
 depart_0: x[0,0,0] + x[0,1,0] + x[0,2,0] + x[0,3,0] + x[0,4,0] + x[0,5,0]
   = 1
 return_0: x[0,0,0] + x[1,0,0] + x[2,0,0] + x[3,0,0] + x[4,0,0] + x[5,0,0]
   = 1
 depart_1: x[0,0,1] + x[0,1,1] + x[0,2,1] + x[0,3,1] + x[0,4,1] + x[0,5,1]
   = 1
 return_1: x[0,0,1] + x[1,0,1] + x[2,0,1] + x[3,0,1] + x[4,0,1] + x[5,0,1]
   = 1
 depart_2: x[0,0,2] + x[0,1,2] + x[0,2,2] + x[0,3,2] + x[0,4,2] + x[0,5,2]
   = 1
 return_2: x[0,0,2] + x[1,0,2] + x[2,0,2] + x[3,0,2] + x[4,0,2] + x[5,0,2]
   = 1
 load_lb_0_1_0: - 150 x[0,1,0] - u[0,0] + u[1,0] >= -144
 load_ub_0_1_0: 150 x[0,1,0] - u[0,0] + u[1,0] <= 156
 load_lb_0_2_0: - 150 x[0,2,0] - u[0,0] + u[2,0] >= -152
 load_ub_0_2_0: 150 x[0,2,0] - u[0,0] + u[2,0] <= 148
 load_lb_0_3_0: - 150 x[0,3,0] - u[0,0] + u[3,0] >= -152
 load_ub_0_3_0: 150 x[0,3,0] - u[0,0] + u[3,0] <= 148
 load_lb_0_4_0: - 150 x[0,4,0] - u[0,0] + u[4,0] >= -151
 load_ub_0_4_0: 150 x[0,4,0] - u[0,0] + u[4,0] <= 149
 load_lb_0_5_0: - 150 x[0,5,0] - u[0,0] + u[5,0] >= -153
 load_ub_0_5_0: 150 x[0,5,0] - u[0,0] + u[5,0] <= 147
 load_lb_1_2_0: - 150 x[1,2,0] - u[1,0] + u[2,0] >= -152
 load_ub_1_2_0: 150 x[1,2,0] - u[1,0] + u[2,0] <= 148
 load_lb_1_3_0: - 150 x[1,3,0] - u[1,0] + u[3,0] >= -152
 load_ub_1_3_0: 150 x[1,3,0] - u[1,0] + u[3,0] <= 148
 load_lb_1_4_0: - 150 x[1,4,0] - u[1,0] + u[4,0] >= -151
 load_ub_1_4_0: 150 x[1,4,0] - u[1,0] + u[4,0] <= 149
 load_lb_1_5_0: - 150 x[1,5,0] - u[1,0] + u[5,0] >= -153
 load_ub_1_5_0: 150 x[1,5,0] - u[1,0] + u[5,0] <= 147
 load_lb_2_1_0: - 150 x[2,1,0] + u[1,0] - u[2,0] >= -144
 load_ub_2_1_0: 150 x[2,1,0] + u[1,0] - u[2,0] <= 156
 load_lb_2_3_0: - 150 x[2,3,0] - u[2,0] + u[3,0] >= -152
 load_ub_2_3_0: 150 x[2,3,0] - u[2,0] + u[3,0] <= 148
 load_lb_2_4_0: - 150 x[2,4,0] - u[2,0] + u[4,0] >= -151
 load_ub_2_4_0: 150 x[2,4,0] - u[2,0] + u[4,0] <= 149
 load_lb_2_5_0: - 150 x[2,5,0] - u[2,0] + u[5,0] >= -153
 load_ub_2_5_0: 150 x[2,5,0] - u[2,0] + u[5,0] <= 147
 load_lb_3_1_0: - 150 x[3,1,0] + u[1,0] - u[3,0] >= -144
 load_ub_3_1_0: 150 x[3,1,0] + u[1,0] - u[3,0] <= 156
 load_lb_3_2_0: - 150 x[3,2,0] + u[2,0] - u[3,0] >= -152
 load_ub_3_2_0: 150 x[3,2,0] + u[2,0] - u[3,0] <= 148
 load_lb_3_4_0: - 150 x[3,4,0] - u[3,0] + u[4,0] >= -151
 load_ub_3_4_0: 150 x[3,4,0] - u[3,0] + u[4,0] <= 149
 load_lb_3_5_0: - 150 x[3,5,0] - u[3,0] + u[5,0] >= -153
 load_ub_3_5_0: 150 x[3,5,0] - u[3,0] + u[5,0] <= 147
 load_lb_4_1_0: - 150 x[4,1,0] + u[1,0] - u[4,0] >= -144
 load_ub_4_1_0: 150 x[4,1,0] + u[1,0] - u[4,0] <= 156
 load_lb_4_2_0: - 150 x[4,2,0] + u[2,0] - u[4,0] >= -152
 load_ub_4_2_0: 150 x[4,2,0] + u[2,0] - u[4,0] <= 148
 load_lb_4_3_0: - 150 x[4,3,0] + u[3,0] - u[4,0] >= -152
 load_ub_4_3_0: 150 x[4,3,0] + u[3,0] - u[4,0] <= 148
 load_lb_4_5_0: - 150 x[4,5,0] - u[4,0] + u[5,0] >= -153
 load_ub_4_5_0: 150 x[4,5,0] - u[4,0] + u[5,0] <= 147
 load_lb_5_1_0: - 150 x[5,1,0] + u[1,0] - u[5,0] >= -144
 load_ub_5_1_0: 150 x[5,1,0] + u[1,0] - u[5,0] <= 156
 load_lb_5_2_0: - 150 x[5,2,0] + u[2,0] - u[5,0] >= -152
 load_ub_5_2_0: 150 x[5,2,0] + u[2,0] - u[5,0] <= 148
 load_lb_5_3_0: - 150 x[5,3,0] + u[3,0] - u[5,0] >= -152
 load_ub_5_3_0: 150 x[5,3,0] + u[3,0] - u[5,0] <= 148
 load_lb_5_4_0: - 150 x[5,4,0] + u[4,0] - u[5,0] >= -151
 load_ub_5_4_0: 150 x[5,4,0] + u[4,0] - u[5,0] <= 149
 load_lb_0_1_1: - 150 x[0,1,1] - u[0,1] + u[1,1] >= -144
 load_ub_0_1_1: 150 x[0,1,1] - u[0,1] + u[1,1] <= 156
 load_lb_0_2_1: - 150 x[0,2,1] - u[0,1] + u[2,1] >= -152
 load_ub_0_2_1: 150 x[0,2,1] - u[0,1] + u[2,1] <= 148
 load_lb_0_3_1: - 150 x[0,3,1] - u[0,1] + u[3,1] >= -152
 load_ub_0_3_1: 150 x[0,3,1] - u[0,1] + u[3,1] <= 148
 load_lb_0_4_1: - 150 x[0,4,1] - u[0,1] + u[4,1] >= -151
 load_ub_0_4_1: 150 x[0,4,1] - u[0,1] + u[4,1] <= 149
 load_lb_0_5_1: - 150 x[0,5,1] - u[0,1] + u[5,1] >= -153
 load_ub_0_5_1: 150 x[0,5,1] - u[0,1] + u[5,1] <= 147
 load_lb_1_2_1: - 150 x[1,2,1] - u[1,1] + u[2,1] >= -152
 load_ub_1_2_1: 150 x[1,2,1] - u[1,1] + u[2,1] <= 148
 load_lb_1_3_1: - 150 x[1,3,1] - u[1,1] + u[3,1] >= -152
 load_ub_1_3_1: 150 x[1,3,1] - u[1,1] + u[3,1] <= 148
 load_lb_1_4_1: - 150 x[1,4,1] - u[1,1] + u[4,1] >= -151
 load_ub_1_4_1: 150 x[1,4,1] - u[1,1] + u[4,1] <= 149
 load_lb_1_5_1: - 150 x[1,5,1] - u[1,1] + u[5,1] >= -153
 load_ub_1_5_1: 150 x[1,5,1] - u[1,1] + u[5,1] <= 147
 load_lb_2_1_1: - 150 x[2,1,1] + u[1,1] - u[2,1] >= -144
 load_ub_2_1_1: 150 x[2,1,1] + u[1,1] - u[2,1] <= 156
 load_lb_2_3_1: - 150 x[2,3,1] - u[2,1] + u[3,1] >= -152
 load_ub_2_3_1: 150 x[2,3,1] - u[2,1] + u[3,1] <= 148
 load_lb_2_4_1: - 150 x[2,4,1] - u[2,1] + u[4,1] >= -151
 load_ub_2_4_1: 150 x[2,4,1] - u[2,1] + u[4,1] <= 149
 load_lb_2_5_1: - 150 x[2,5,1] - u[2,1] + u[5,1] >= -153
 load_ub_2_5_1: 150 x[2,5,1] - u[2,1] + u[5,1] <= 147
 load_lb_3_1_1: - 150 x[3,1,1] + u[1,1] - u[3,1] >= -144
 load_ub_3_1_1: 150 x[3,1,1] + u[1,1] - u[3,1] <= 156
 load_lb_3_2_1: - 150 x[3,2,1] + u[2,1] - u[3,1] >= -152
 load_ub_3_2_1: 150 x[3,2,1] + u[2,1] - u[3,1] <= 148
 load_lb_3_4_1: - 150 x[3,4,1] - u[3,1] + u[4,1] >= -151
 load_ub_3_4_1: 150 x[3,4,1] - u[3,1] + u[4,1] <= 149
 load_lb_3_5_1: - 150 x[3,5,1] - u[3,1] + u[5,1] >= -153
 load_ub_3_5_1: 150 x[3,5,1] - u[3,1] + u[5,1] <= 147
 load_lb_4_1_1: - 150 x[4,1,1] + u[1,1] - u[4,1] >= -144
 load_ub_4_1_1: 150 x[4,1,1] + u[1,1] - u[4,1] <= 156
 load_lb_4_2_1: - 150 x[4,2,1] + u[2,1] - u[4,1] >= -152
 load_ub_4_2_1: 150 x[4,2,1] + u[2,1] - u[4,1] <= 148
 load_lb_4_3_1: - 150 x[4,3,1] + u[3,1] - u[4,1] >= -152
 load_ub_4_3_1: 150 x[4,3,1] + u[3,1] - u[4,1] <= 148
 load_lb_4_5_1: - 150 x[4,5,1] - u[4,1] + u[5,1] >= -153
 load_ub_4_5_1: 150 x[4,5,1] - u[4,1] + u[5,1] <= 147
 load_lb_5_1_1: - 150 x[5,1,1] + u[1,1] - u[5,1] >= -144
 load_ub_5_1_1: 150 x[5,1,1] + u[1,1] - u[5,1] <= 156
 load_lb_5_2_1: - 150 x[5,2,1] + u[2,1] - u[5,1] >= -152
 load_ub_5_2_1: 150 x[5,2,1] + u[2,1] - u[5,1] <= 148
 load_lb_5_3_1: - 150 x[5,3,1] + u[3,1] - u[5,1] >= -152
 load_ub_5_3_1: 150 x[5,3,1] + u[3,1] - u[5,1] <= 148
 load_lb_5_4_1: - 150 x[5,4,1] + u[4,1] - u[5,1] >= -151
 load_ub_5_4_1: 150 x[5,4,1] + u[4,1] - u[5,1] <= 149
 load_lb_0_1_2: - 150 x[0,1,2] - u[0,2] + u[1,2] >= -144
 load_ub_0_1_2: 150 x[0,1,2] - u[0,2] + u[1,2] <= 156
 load_lb_0_2_2: - 150 x[0,2,2] - u[0,2] + u[2,2] >= -152
 load_ub_0_2_2: 150 x[0,2,2] - u[0,2] + u[2,2] <= 148
 load_lb_0_3_2: - 150 x[0,3,2] - u[0,2] + u[3,2] >= -152
 load_ub_0_3_2: 150 x[0,3,2] - u[0,2] + u[3,2] <= 148
 load_lb_0_4_2: - 150 x[0,4,2] - u[0,2] + u[4,2] >= -151
 load_ub_0_4_2: 150 x[0,4,2] - u[0,2] + u[4,2] <= 149
 load_lb_0_5_2: - 150 x[0,5,2] - u[0,2] + u[5,2] >= -153
 load_ub_0_5_2: 150 x[0,5,2] - u[0,2] + u[5,2] <= 147
 load_lb_1_2_2: - 150 x[1,2,2] - u[1,2] + u[2,2] >= -152
 load_ub_1_2_2: 150 x[1,2,2] - u[1,2] + u[2,2] <= 148
 load_lb_1_3_2: - 150 x[1,3,2] - u[1,2] + u[3,2] >= -152
 load_ub_1_3_2: 150 x[1,3,2] - u[1,2] + u[3,2] <= 148
 load_lb_1_4_2: - 150 x[1,4,2] - u[1,2] + u[4,2] >= -151
 load_ub_1_4_2: 150 x[1,4,2] - u[1,2] + u[4,2] <= 149
 load_lb_1_5_2: - 150 x[1,5,2] - u[1,2] + u[5,2] >= -153
 load_ub_1_5_2: 150 x[1,5,2] - u[1,2] + u[5,2] <= 147
 load_lb_2_1_2: - 150 x[2,1,2] + u[1,2] - u[2,2] >= -144
 load_ub_2_1_2: 150 x[2,1,2] + u[1,2] - u[2,2] <= 156
 load_lb_2_3_2: - 150 x[2,3,2] - u[2,2] + u[3,2] >= -152
 load_ub_2_3_2: 150 x[2,3,2] - u[2,2] + u[3,2] <= 148
 load_lb_2_4_2: - 150 x[2,4,2] - u[2,2] + u[4,2] >= -151
 load_ub_2_4_2: 150 x[2,4,2] - u[2,2] + u[4,2] <= 149
 load_lb_2_5_2: - 150 x[2,5,2] - u[2,2] + u[5,2] >= -153
 load_ub_2_5_2: 150 x[2,5,2] - u[2,2] + u[5,2] <= 147
 load_lb_3_1_2: - 150 x[3,1,2] + u[1,2] - u[3,2] >= -144
 load_ub_3_1_2: 150 x[3,1,2] + u[1,2] - u[3,2] <= 156
 load_lb_3_2_2: - 150 x[3,2,2] + u[2,2] - u[3,2] >= -152
 load_ub_3_2_2: 150 x[3,2,2] + u[2,2] - u[3,2] <= 148
 load_lb_3_4_2: - 150 x[3,4,2] - u[3,2] + u[4,2] >= -151
 load_ub_3_4_2: 150 x[3,4,2] - u[3,2] + u[4,2] <= 149
 load_lb_3_5_2: - 150 x[3,5,2] - u[3,2] + u[5,2] >= -153
 load_ub_3_5_2: 150 x[3,5,2] - u[3,2] + u[5,2] <= 147
 load_lb_4_1_2: - 150 x[4,1,2] + u[1,2] - u[4,2] >= -144
 load_ub_4_1_2: 150 x[4,1,2] + u[1,2] - u[4,2] <= 156
 load_lb_4_2_2: - 150 x[4,2,2] + u[2,2] - u[4,2] >= -152
 load_ub_4_2_2: 150 x[4,2,2] + u[2,2] - u[4,2] <= 148
 load_lb_4_3_2: - 150 x[4,3,2] + u[3,2] - u[4,2] >= -152
 load_ub_4_3_2: 150 x[4,3,2] + u[3,2] - u[4,2] <= 148
 load_lb_4_5_2: - 150 x[4,5,2] - u[4,2] + u[5,2] >= -153
 load_ub_4_5_2: 150 x[4,5,2] - u[4,2] + u[5,2] <= 147
 load_lb_5_1_2: - 150 x[5,1,2] + u[1,2] - u[5,2] >= -144
 load_ub_5_1_2: 150 x[5,1,2] + u[1,2] - u[5,2] <= 156
 load_lb_5_2_2: - 150 x[5,2,2] + u[2,2] - u[5,2] >= -152
 load_ub_5_2_2: 150 x[5,2,2] + u[2,2] - u[5,2] <= 148
 load_lb_5_3_2: - 150 x[5,3,2] + u[3,2] - u[5,2] >= -152
 load_ub_5_3_2: 150 x[5,3,2] + u[3,2] - u[5,2] <= 148
 load_lb_5_4_2: - 150 x[5,4,2] + u[4,2] - u[5,2] >= -151
 load_ub_5_4_2: 150 x[5,4,2] + u[4,2] - u[5,2] <= 149
 cap_0_0: u[0,0] <= 150
 cap_1_0: u[1,0] <= 150
 cap_2_0: u[2,0] <= 150
 cap_3_0: u[3,0] <= 150
 cap_4_0: u[4,0] <= 150
 cap_5_0: u[5,0] <= 150
 cap_0_1: u[0,1] <= 150
 cap_1_1: u[1,1] <= 150
 cap_2_1: u[2,1] <= 150
 cap_3_1: u[3,1] <= 150
 cap_4_1: u[4,1] <= 150
 cap_5_1: u[5,1] <= 150
 cap_0_2: u[0,2] <= 150
 cap_1_2: u[1,2] <= 150
 cap_2_2: u[2,2] <= 150
 cap_3_2: u[3,2] <= 150
 cap_4_2: u[4,2] <= 150
 cap_5_2: u[5,2] <= 150
 initial_load_0: - 18 x[1,0,0] - 18 x[1,2,0] - 18 x[1,3,0] - 18 x[1,4,0]
   - 18 x[1,5,0] - 18 x[2,0,0] - 18 x[2,1,0] - 18 x[2,3,0] - 18 x[2,4,0]
   - 18 x[2,5,0] - 25 x[3,0,0] - 25 x[3,1,0] - 25 x[3,2,0] - 25 x[3,4,0]
   - 25 x[3,5,0] - 19 x[4,0,0] - 19 x[4,1,0] - 19 x[4,2,0] - 19 x[4,3,0]
   - 19 x[4,5,0] - 22 x[5,0,0] - 22 x[5,1,0] - 22 x[5,2,0] - 22 x[5,3,0]
   - 22 x[5,4,0] + u[0,0] = 0
 initial_load_1: - 18 x[1,0,1] - 18 x[1,2,1] - 18 x[1,3,1] - 18 x[1,4,1]
   - 18 x[1,5,1] - 18 x[2,0,1] - 18 x[2,1,1] - 18 x[2,3,1] - 18 x[2,4,1]
   - 18 x[2,5,1] - 25 x[3,0,1] - 25 x[3,1,1] - 25 x[3,2,1] - 25 x[3,4,1]
   - 25 x[3,5,1] - 19 x[4,0,1] - 19 x[4,1,1] - 19 x[4,2,1] - 19 x[4,3,1]
   - 19 x[4,5,1] - 22 x[5,0,1] - 22 x[5,1,1] - 22 x[5,2,1] - 22 x[5,3,1]
   - 22 x[5,4,1] + u[0,1] = 0
 initial_load_2: - 18 x[1,0,2] - 18 x[1,2,2] - 18 x[1,3,2] - 18 x[1,4,2]
   - 18 x[1,5,2] - 18 x[2,0,2] - 18 x[2,1,2] - 18 x[2,3,2] - 18 x[2,4,2]
   - 18 x[2,5,2] - 25 x[3,0,2] - 25 x[3,1,2] - 25 x[3,2,2] - 25 x[3,4,2]
   - 25 x[3,5,2] - 19 x[4,0,2] - 19 x[4,1,2] - 19 x[4,2,2] - 19 x[4,3,2]
   - 19 x[4,5,2] - 22 x[5,0,2] - 22 x[5,1,2] - 22 x[5,2,2] - 22 x[5,3,2]
   - 22 x[5,4,2] + u[0,2] = 0
Bounds
 u[0,0] <= 150
 u[1,0] <= 150
 u[2,0] <= 150
 u[3,0] <= 150
 u[4,0] <= 150
 u[5,0] <= 150
 u[0,1] <= 150
 u[1,1] <= 150
 u[2,1] <= 150
 u[3,1] <= 150
 u[4,1] <= 150
 u[5,1] <= 150
 u[0,2] <= 150
 u[1,2] <= 150
 u[2,2] <= 150
 u[3,2] <= 150
 u[4,2] <= 150
 u[5,2] <= 150
Binaries
 x[0,0,0] x[0,1,0] x[0,2,0] x[0,3,0] x[0,4,0] x[0,5,0] x[1,0,0] x[1,2,0]
 x[1,3,0] x[1,4,0] x[1,5,0] x[2,0,0] x[2,1,0] x[2,3,0] x[2,4,0] x[2,5,0]
 x[3,0,0] x[3,1,0] x[3,2,0] x[3,4,0] x[3,5,0] x[4,0,0] x[4,1,0] x[4,2,0]
 x[4,3,0] x[4,5,0] x[5,0,0] x[5,1,0] x[5,2,0] x[5,3,0] x[5,4,0] x[0,0,1]
 x[0,1,1] x[0,2,1] x[0,3,1] x[0,4,1] x[0,5,1] x[1,0,1] x[1,2,1] x[1,3,1]
 x[1,4,1] x[1,5,1] x[2,0,1] x[2,1,1] x[2,3,1] x[2,4,1] x[2,5,1] x[3,0,1]
 x[3,1,1] x[3,2,1] x[3,4,1] x[3,5,1] x[4,0,1] x[4,1,1] x[4,2,1] x[4,3,1]
 x[4,5,1] x[5,0,1] x[5,1,1] x[5,2,1] x[5,3,1] x[5,4,1] x[0,0,2] x[0,1,2]
 x[0,2,2] x[0,3,2] x[0,4,2] x[0,5,2] x[1,0,2] x[1,2,2] x[1,3,2] x[1,4,2]
 x[1,5,2] x[2,0,2] x[2,1,2] x[2,3,2] x[2,4,2] x[2,5,2] x[3,0,2] x[3,1,2]
 x[3,2,2] x[3,4,2] x[3,5,2] x[4,0,2] x[4,1,2] x[4,2,2] x[4,3,2] x[4,5,2]
 x[5,0,2] x[5,1,2] x[5,2,2] x[5,3,2] x[5,4,2]
End
